% demand
num_movements = 38;
loading_factor = [1200, 1300, 1450, 2000, 1800, 1450, 800, 1000, 1500, 850, 1050, 1000, 1800, 1250, 2000, 1900, 1100, 900, 1950, 1800, 950, 1950, 900, 1800, 1300, 1200, 950, 1000, 1050, 900, 1650, 1250, 1450, 1900, 1000, 2000, 1200, 1350];
pickup_time = [0, 0, 0, 0, 0, 0, 0, 0, 1, 1, 1, 1, 1, 1, 1, 2, 2, 2, 2, 3, 4, 4, 4, 4, 4, 4, 5, 5, 5, 6, 7, 7, 7, 8, 8, 8, 8, 8];
delivery_time = [1, 1, 1, 1, 1, 1, 6, 1, 2, 2, 2, 3, 3, 3, 2, 4, 3, 8, 3, 4, 9, 6, 6, 5, 8, 8, 6, 9, 7, 8, 8, 8, 9, 9, 9, 9, 9, 9];

% transporter definition
total_capacity = 11000;
num_decks = 4;
capacity = [3000, 3000, 1000, 4000];

% ways out of decks
num_ways_out = 2;
paths_out = array3d(decks, ways_out, decks, [
% ways out of deck d1
2, 4, 0, 0, 3, 4, 0, 0, 

% ways out of deck d2
4, 0, 0, 0, 0, 0, 0, 0,	

% ways out of deck d3
4, 0, 0, 0, 0, 0, 0, 0,	

% ways out of deck d4
0, 0, 0, 0,	0, 0, 0, 0,	

]);

